N = 13;
H = 6;
T = 2;

avail = array3d(1..N, 1..H, 1..T, [5, 9, 5, 2, 6, 8, 3, 9, 8, 7, 5, 4, 4, 3, 7, 4, 10, 8, 4, 8, 0, 6, 5, 5, 7, 10, 3, 0, 9, 3, 0, 4, 10, 0, 7, 6, 7, 7, 2, 4, 3, 1, 0, 2, 2, 7, 7, 3, 0, 1, 6, 7, 3, 0, 5, 9, 3, 6, 6, 8, 6, 1, 9, 6, 10, 0, 10, 7, 3, 1, 8, 4, 5, 2, 7, 5, 10, 7, 9, 2, 7, 0, 8, 5, 9, 3, 0, 9, 6, 2, 10, 3, 10, 3, 8, 3, 2, 4, 7, 3, 10, 8, 6, 5, 10, 8, 9, 4, 4, 7, 1, 3, 3, 4, 7, 9, 0, 8, 8, 1, 6, 0, 4, 5, 2, 1, 1, 5, 2, 7, 8, 8, 1, 3, 4, 10, 3, 2, 9, 4, 5, 4, 0, 6, 0, 6, 1, 9, 1, 0, 1, 1, 1, 8, 4, 4]);

r = array2d(1..H, 1..T, [6, 6, 4, 6, 5, 4, 4, 3, 1, 2, 2, 6]);
